units		real
atom_style	sphere

fix		Vectors all property/atom d_normalX d_normalY d_normalZ

read_data	data.test.txt fix Vectors NULL Normals

pair_style	ops 2.5
pair_coeff	* * 100.0 2.0 1.5 1 0 1 1 1 1 1 1

dump 1 all custom 10 dumpOPS_forces id fx fy fz

thermo		10
run		10
